c WARNING: for repeatability, setting FPU to use double precision
d VARIABLES            60126        
d CONSTRAINTS          256055       
c ============================[ Problem Statistics ]=============================
c |                                                                             |
c |  Number of variables:         60126                                         |
c |  Number of clauses:          256055                                         |
c |  Parse time:                   0.04 s                                       |
c |                                                                             |
c ============================[ Search Statistics ]==============================
c | Conflicts |          ORIGINAL         |          LEARNT          | Progress |
c |           |    Vars  Clauses Literals |    Limit  Clauses Lit/Cl |          |
c ===============================================================================
c |       100 |   47922   221371   538928 |    81169      100     16 | 20.297 % |
c |       250 |   47922   221371   538928 |    89286      250     31 | 20.297 % |
c |       475 |   47922   221371   538928 |    98214      475     81 | 20.297 % |
c |       812 |   47922   221371   538928 |   108036      812     86 | 20.297 % |
c |      1318 |   47922   221371   538928 |   118840     1318     90 | 20.297 % |
c |      2077 |   47922   221371   538928 |   130724     2077     92 | 20.297 % |
c |      3216 |   47922   221371   538928 |   143796     3216     75 | 20.297 % |
c |      4924 |   47922   221371   538928 |   158176     4924     87 | 20.297 % |
c |      7486 |   47922   221371   538928 |   173993     7486    102 | 20.297 % |
c |     11330 |   47922   221371   538928 |   191393    11330    108 | 20.297 % |
c |     17096 |   47922   221371   538928 |   210532    17096    123 | 20.297 % |
c |     25745 |   47922   221371   538928 |   231585    25745    137 | 20.297 % |
c |     38719 |   47922   221371   538928 |   254744    38719    145 | 20.297 % |
c |     58180 |   47922   221371   538928 |   280218    58180    145 | 20.297 % |
c |     87372 |   47922   221371   538928 |   308240    87372    142 | 20.297 % |
c |    131161 |   47922   221371   538928 |   339064   131161    139 | 20.297 % |
c |    196845 |   47922   221371   538928 |   372971   196845    134 | 20.297 % |
c |    295371 |   47922   221371   538928 |   410268   295371    133 | 20.297 % |
c |    443160 |   47922   221371   538928 |   451294    44241    112 | 20.297 % |
c |    664843 |   47921   221360   538902 |   496424   265907    126 | 20.299 % |
c |    997368 |   47908   221291   538738 |   546066   119419    140 | 20.321 % |
c ===============================================================================
c restarts              : 2355
c conflicts             : 1243316        (1836 /sec)
c decisions             : 2826555        (0.00 % random) (4174 /sec)
c propagations          : 1470777003     (2171792 /sec)
c conflict literals     : 165117176      (43.42 % deleted)
d RESTARTS             2355
d FAILURES             1243316      
d NODES                2826555      
d BACKTRACKS           2826555      
d PROPAGATIONS         1470777003   
d NOGOODSIZE           132.80 
d MEMORY               419.00 
d TIME                 677.218 

s UNSATISFIABLE
